coords = array2d(1..23, 1..2, [378, 359, 929, 294, 867, 402, 992, 408, 134,
    426, 473, 533, 419, 837, 634, 67, 628, 828, 385, 769, 137, 956,
    151, 736, 740, 88, 524, 366, 697, 952, 123, 858, 730, 2, 149, 407,
    245, 222, 314, 618, 977, 427, 14, 287, 628, 920]);

n = 23;

